ITEM = _(1..50);
capacity = 10;
profits = [565, 420, 390, 298, 995, 83, 711, 856, 743, 24, 345, 251, 707, 836, 344, 785, 738, 85, 687, 130, 888, 57, 539, 579, 339, 501, 989, 331, 868, 197, 144, 330, 560, 71, 321, 442, 96, 364, 895, 281, 77, 17, 846, 185, 307, 949, 428, 168, 284, 924];
weights = [43, 95, 29, 71, 98, 18, 36, 93, 85, 29, 100, 67, 43, 21, 59, 78, 83, 40, 85, 89, 74, 81, 90, 73, 95, 91, 15, 43, 92, 61, 41, 62, 99, 29, 78, 44, 70, 64, 74, 72, 11, 76, 50, 39, 96, 94, 39, 55, 29, 81];
